42843
88,98,97,96,95,100,99,111,110,109,108,107,106,105,104,112,113,101,114,115,116,117,102,156,159,158,157,162,166,161,160,165,164,169,163,170,171,135,168,167,134,133,136,184,141,185,186,175,173,172,174,178,180,181,179,183,195,196,202,201,200,199,197,192,191,198,193,194,182,177,176,189,188,190,187,149,150,151,152,153,155,154,146,148,147,145,144,143,139,140,132,126,125,122,121,119,40,41,103,46,49,50,48,47,45,44,42,36,38,118,39,123,120,124,131,130,129,128,37,35,43,53,56,57,54,55,52,34,33,26,27,28,29,127,137,138,142,25,24,23,22,11,18,17,9,10,13,8,7,6,5,4,2,1,3,16,14,15,12,19,21,20,32,31,30,51,69,70,73,72,71,58,59,60,61,62,63,64,65,66,85,84,67,68,74,75,76,77,78,83,79,80,82,81,90,91,89,86,87,92,93,94,88
